data/lp_files/pEFS/56_2.lp
\ Model foo
\ LP format - for model browsing. Use MPS format to capture full model detail.
Minimize
  z
Subject To
 allocateEach[1]: x[1,1] + x[2,1] + x[3,1] = 1
 allocateEach[2]: x[1,2] + x[2,2] + x[3,2] = 1
 allocateEach[3]: x[1,3] + x[2,3] + x[3,3] = 1
 allocateEach[4]: x[1,4] + x[2,4] + x[3,4] = 1
 allocateEach[5]: x[1,5] + x[2,5] + x[3,5] = 1
 allocateEach[6]: x[1,6] + x[2,6] + x[3,6] = 1
 allocateEach[7]: x[1,7] + x[2,7] + x[3,7] = 1
 allocateEach[8]: x[1,8] + x[2,8] + x[3,8] = 1
 allocateEach[9]: x[1,9] + x[2,9] + x[3,9] = 1
 allocateEach[10]: x[1,10] + x[2,10] + x[3,10] = 1
 allocateEach[11]: x[1,11] + x[2,11] + x[3,11] = 1
 allocateEach[12]: x[1,12] + x[2,12] + x[3,12] = 1
 allocateEach[13]: x[1,13] + x[2,13] + x[3,13] = 1
 allocateEach[14]: x[1,14] + x[2,14] + x[3,14] = 1
 allocateEach[15]: x[1,15] + x[2,15] + x[3,15] = 1
 allocateEach[16]: x[1,16] + x[2,16] + x[3,16] = 1
 allocateAllCash: cashProportion[1] + cashProportion[2] + cashProportion[3]
   = 1
 findWorstP[1,2]: z + 0.01657824933687 cashProportion[1]
   - 0.01657824933687 cashProportion[2] + 0.0793545534924845 x[1,1]
   + 0.1083885941644562 x[1,2] + 0.0247458001768347 x[1,3]
   + 0.0678381962864722 x[1,4] + 0.014843059239611 x[1,5]
   + 0.0316865605658709 x[1,6] + 0.0540119363395226 x[1,7]
   + 0.0651525198938992 x[1,8] + 0.0435897435897436 x[1,9]
   + 0.0868368700265252 x[1,10] + 0.1026635720601238 x[1,11]
   + 0.0222038019451813 x[1,12] + 0.0757404951370469 x[1,13]
   + 0.0383068081343943 x[1,14] + 0.0623784261715296 x[1,15]
   + 0.1056808134394341 x[1,16] - 0.0793545534924845 x[2,1]
   - 0.1083885941644562 x[2,2] - 0.0247458001768347 x[2,3]
   - 0.0678381962864722 x[2,4] - 0.014843059239611 x[2,5]
   - 0.0316865605658709 x[2,6] - 0.0540119363395226 x[2,7]
   - 0.0651525198938992 x[2,8] - 0.0435897435897436 x[2,9]
   - 0.0868368700265252 x[2,10] - 0.1026635720601238 x[2,11]
   - 0.0222038019451813 x[2,12] - 0.0757404951370469 x[2,13]
   - 0.0383068081343943 x[2,14] - 0.0623784261715296 x[2,15]
   - 0.1056808134394341 x[2,16] >= 0
 findWorstP[1,3]: z + 0.01657824933687 cashProportion[1]
   - 0.01657824933687 cashProportion[3] + 0.0793545534924845 x[1,1]
   + 0.1083885941644562 x[1,2] + 0.0247458001768347 x[1,3]
   + 0.0678381962864722 x[1,4] + 0.014843059239611 x[1,5]
   + 0.0316865605658709 x[1,6] + 0.0540119363395226 x[1,7]
   + 0.0651525198938992 x[1,8] + 0.0435897435897436 x[1,9]
   + 0.0868368700265252 x[1,10] + 0.1026635720601238 x[1,11]
   + 0.0222038019451813 x[1,12] + 0.0757404951370469 x[1,13]
   + 0.0383068081343943 x[1,14] + 0.0623784261715296 x[1,15]
   + 0.1056808134394341 x[1,16] - 0.0793545534924845 x[3,1]
   - 0.1083885941644562 x[3,2] - 0.0247458001768347 x[3,3]
   - 0.0678381962864722 x[3,4] - 0.014843059239611 x[3,5]
   - 0.0316865605658709 x[3,6] - 0.0540119363395226 x[3,7]
   - 0.0651525198938992 x[3,8] - 0.0435897435897436 x[3,9]
   - 0.0868368700265252 x[3,10] - 0.1026635720601238 x[3,11]
   - 0.0222038019451813 x[3,12] - 0.0757404951370469 x[3,13]
   - 0.0383068081343943 x[3,14] - 0.0623784261715296 x[3,15]
   - 0.1056808134394341 x[3,16] >= 0
 findWorstP[2,1]: z - 0.0151256945214734 cashProportion[1]
   + 0.0151256945214734 cashProportion[2] - 0.0666942290433502 x[1,1]
   - 0.0690538373887001 x[1,2] - 0.0751444503826801 x[1,3]
   - 0.0825257893091591 x[1,4] - 0.0229204690982061 x[1,5]
   - 0.0790771309582632 x[1,6] - 0.0872450059998588 x[1,7]
   - 0.0472123344996924 x[1,8] - 0.0847139731165989 x[1,9]
   - 0.0328227571115974 x[1,10] - 0.0436830057780153 x[1,11]
   - 0.0623380290211659 x[1,12] - 0.0339723098952294 x[1,13]
   - 0.066240458207706 x[1,14] - 0.0948381046496385 x[1,15]
   - 0.0363924210186651 x[1,16] + 0.0666942290433502 x[2,1]
   + 0.0690538373887001 x[2,2] + 0.0751444503826801 x[2,3]
   + 0.0825257893091591 x[2,4] + 0.0229204690982061 x[2,5]
   + 0.0790771309582632 x[2,6] + 0.0872450059998588 x[2,7]
   + 0.0472123344996924 x[2,8] + 0.0847139731165989 x[2,9]
   + 0.0328227571115974 x[2,10] + 0.0436830057780153 x[2,11]
   + 0.0623380290211659 x[2,12] + 0.0339723098952294 x[2,13]
   + 0.066240458207706 x[2,14] + 0.0948381046496385 x[2,15]
   + 0.0363924210186651 x[2,16] >= 0
 findWorstP[2,3]: z + 0.0151256945214734 cashProportion[2]
   - 0.0151256945214734 cashProportion[3] + 0.0666942290433502 x[2,1]
   + 0.0690538373887001 x[2,2] + 0.0751444503826801 x[2,3]
   + 0.0825257893091591 x[2,4] + 0.0229204690982061 x[2,5]
   + 0.0790771309582632 x[2,6] + 0.0872450059998588 x[2,7]
   + 0.0472123344996924 x[2,8] + 0.0847139731165989 x[2,9]
   + 0.0328227571115974 x[2,10] + 0.0436830057780153 x[2,11]
   + 0.0623380290211659 x[2,12] + 0.0339723098952294 x[2,13]
   + 0.066240458207706 x[2,14] + 0.0948381046496385 x[2,15]
   + 0.0363924210186651 x[2,16] - 0.0666942290433502 x[3,1]
   - 0.0690538373887001 x[3,2] - 0.0751444503826801 x[3,3]
   - 0.0825257893091591 x[3,4] - 0.0229204690982061 x[3,5]
   - 0.0790771309582632 x[3,6] - 0.0872450059998588 x[3,7]
   - 0.0472123344996924 x[3,8] - 0.0847139731165989 x[3,9]
   - 0.0328227571115974 x[3,10] - 0.0436830057780153 x[3,11]
   - 0.0623380290211659 x[3,12] - 0.0339723098952294 x[3,13]
   - 0.066240458207706 x[3,14] - 0.0948381046496385 x[3,15]
   - 0.0363924210186651 x[3,16] >= 0
 findWorstP[3,1]: z - 0.0180598865839123 cashProportion[1]
   + 0.0180598865839123 cashProportion[3] - 0.072986021647784 x[1,1]
   - 0.039864189652889 x[1,2] - 0.0297988128634552 x[1,3]
   - 0.0918044234682206 x[1,4] - 0.0943087277411898 x[1,5]
   - 0.0120519643136641 x[1,6] - 0.0372876458335842 x[1,7]
   - 0.0725525843697702 x[1,8] - 0.1026042356454001 x[1,9]
   - 0.1044102243037914 x[1,10] - 0.0150860252597614 x[1,11]
   - 0.0717820292088566 x[1,12] - 0.0265600732027403 x[1,13]
   - 0.0650276316264734 x[1,14] - 0.1069024886523713 x[1,15]
   - 0.0389130356261363 x[1,16] + 0.072986021647784 x[3,1]
   + 0.039864189652889 x[3,2] + 0.0297988128634552 x[3,3]
   + 0.0918044234682206 x[3,4] + 0.0943087277411898 x[3,5]
   + 0.0120519643136641 x[3,6] + 0.0372876458335842 x[3,7]
   + 0.0725525843697702 x[3,8] + 0.1026042356454001 x[3,9]
   + 0.1044102243037914 x[3,10] + 0.0150860252597614 x[3,11]
   + 0.0717820292088566 x[3,12] + 0.0265600732027403 x[3,13]
   + 0.0650276316264734 x[3,14] + 0.1069024886523713 x[3,15]
   + 0.0389130356261363 x[3,16] >= 0
 findWorstP[3,2]: z - 0.0180598865839123 cashProportion[2]
   + 0.0180598865839123 cashProportion[3] - 0.072986021647784 x[2,1]
   - 0.039864189652889 x[2,2] - 0.0297988128634552 x[2,3]
   - 0.0918044234682206 x[2,4] - 0.0943087277411898 x[2,5]
   - 0.0120519643136641 x[2,6] - 0.0372876458335842 x[2,7]
   - 0.0725525843697702 x[2,8] - 0.1026042356454001 x[2,9]
   - 0.1044102243037914 x[2,10] - 0.0150860252597614 x[2,11]
   - 0.0717820292088566 x[2,12] - 0.0265600732027403 x[2,13]
   - 0.0650276316264734 x[2,14] - 0.1069024886523713 x[2,15]
   - 0.0389130356261363 x[2,16] + 0.072986021647784 x[3,1]
   + 0.039864189652889 x[3,2] + 0.0297988128634552 x[3,3]
   + 0.0918044234682206 x[3,4] + 0.0943087277411898 x[3,5]
   + 0.0120519643136641 x[3,6] + 0.0372876458335842 x[3,7]
   + 0.0725525843697702 x[3,8] + 0.1026042356454001 x[3,9]
   + 0.1044102243037914 x[3,10] + 0.0150860252597614 x[3,11]
   + 0.0717820292088566 x[3,12] + 0.0265600732027403 x[3,13]
   + 0.0650276316264734 x[3,14] + 0.1069024886523713 x[3,15]
   + 0.0389130356261363 x[3,16] >= 0
Bounds
 z <= 1
 -infinity <= cashProportion[1] <= 1
 -infinity <= cashProportion[2] <= 1
 -infinity <= cashProportion[3] <= 1
Binaries
 x[1,1] x[1,2] x[1,3] x[1,4] x[1,5] x[1,6] x[1,7] x[1,8] x[1,9] x[1,10]
 x[1,11] x[1,12] x[1,13] x[1,14] x[1,15] x[1,16] x[2,1] x[2,2] x[2,3]
 x[2,4] x[2,5] x[2,6] x[2,7] x[2,8] x[2,9] x[2,10] x[2,11] x[2,12] x[2,13]
 x[2,14] x[2,15] x[2,16] x[3,1] x[3,2] x[3,3] x[3,4] x[3,5] x[3,6] x[3,7]
 x[3,8] x[3,9] x[3,10] x[3,11] x[3,12] x[3,13] x[3,14] x[3,15] x[3,16]
End
