data/mps_files/q3/56_2.mps
NAME foo
ROWS
 N  OBJ
 E  allocateEach[1]
 E  allocateEach[2]
 E  allocateEach[3]
 E  allocateEach[4]
 E  allocateEach[5]
 E  allocateEach[6]
 E  allocateEach[7]
 E  allocateEach[8]
 E  allocateEach[9]
 E  allocateEach[10]
 E  allocateEach[11]
 E  allocateEach[12]
 E  allocateEach[13]
 E  allocateEach[14]
 E  allocateEach[15]
 E  allocateEach[16]
 E  allocateAllCash
 G  findWorstP[1,2]
 G  findWorstP[1,3]
 G  findWorstP[2,1]
 G  findWorstP[2,3]
 G  findWorstP[3,1]
 G  findWorstP[3,2]
COLUMNS
    z         OBJ       1
    z         findWorstP[1,2]  1
    z         findWorstP[1,3]  1
    z         findWorstP[2,1]  1
    z         findWorstP[2,3]  1
    z         findWorstP[3,1]  1
    z         findWorstP[3,2]  1
    cashProportion[1]  allocateAllCash  1
    cashProportion[1]  findWorstP[1,2]  1.6578249336870028e-02
    cashProportion[1]  findWorstP[1,3]  1.6578249336870028e-02
    cashProportion[1]  findWorstP[2,1]  -1.5125694521473446e-02
    cashProportion[1]  findWorstP[3,1]  -1.8059886583912256e-02
    cashProportion[2]  allocateAllCash  1
    cashProportion[2]  findWorstP[1,2]  -1.6578249336870028e-02
    cashProportion[2]  findWorstP[2,1]  1.5125694521473446e-02
    cashProportion[2]  findWorstP[2,3]  1.5125694521473446e-02
    cashProportion[2]  findWorstP[3,2]  -1.8059886583912256e-02
    cashProportion[3]  allocateAllCash  1
    cashProportion[3]  findWorstP[1,3]  -1.6578249336870028e-02
    cashProportion[3]  findWorstP[2,3]  -1.5125694521473446e-02
    cashProportion[3]  findWorstP[3,1]  1.8059886583912256e-02
    cashProportion[3]  findWorstP[3,2]  1.8059886583912256e-02
    MARKER    'MARKER'                 'INTORG'
    x[1,1]    allocateEach[1]  1
    x[1,1]    findWorstP[1,2]  7.9354553492484520e-02
    x[1,1]    findWorstP[1,3]  7.9354553492484520e-02
    x[1,1]    findWorstP[2,1]  -6.6694229043350234e-02
    x[1,1]    findWorstP[3,1]  -7.2986021647784047e-02
    x[1,2]    allocateEach[2]  1
    x[1,2]    findWorstP[1,2]  1.0838859416445623e-01
    x[1,2]    findWorstP[1,3]  1.0838859416445623e-01
    x[1,2]    findWorstP[2,1]  -6.9053837388700093e-02
    x[1,2]    findWorstP[3,1]  -3.9864189652888980e-02
    x[1,3]    allocateEach[3]  1
    x[1,3]    findWorstP[1,2]  2.4745800176834660e-02
    x[1,3]    findWorstP[1,3]  2.4745800176834660e-02
    x[1,3]    findWorstP[2,1]  -7.5144450382680070e-02
    x[1,3]    findWorstP[3,1]  -2.9798812863455218e-02
    x[1,4]    allocateEach[4]  1
    x[1,4]    findWorstP[1,2]  6.7838196286472155e-02
    x[1,4]    findWorstP[1,3]  6.7838196286472155e-02
    x[1,4]    findWorstP[2,1]  -8.2525789309159117e-02
    x[1,4]    findWorstP[3,1]  -9.1804423468220611e-02
    x[1,5]    allocateEach[5]  1
    x[1,5]    findWorstP[1,2]  1.4843059239610963e-02
    x[1,5]    findWorstP[1,3]  1.4843059239610963e-02
    x[1,5]    findWorstP[2,1]  -2.2920469098206091e-02
    x[1,5]    findWorstP[3,1]  -9.4308727741189785e-02
    x[1,6]    allocateEach[6]  1
    x[1,6]    findWorstP[1,2]  3.1686560565870915e-02
    x[1,6]    findWorstP[1,3]  3.1686560565870915e-02
    x[1,6]    findWorstP[2,1]  -7.9077130958263173e-02
    x[1,6]    findWorstP[3,1]  -1.2051964313664109e-02
    x[1,7]    allocateEach[7]  1
    x[1,7]    findWorstP[1,2]  5.4011936339522552e-02
    x[1,7]    findWorstP[1,3]  5.4011936339522552e-02
    x[1,7]    findWorstP[2,1]  -8.7245005999858821e-02
    x[1,7]    findWorstP[3,1]  -3.7287645833584161e-02
    x[1,8]    allocateEach[8]  1
    x[1,8]    findWorstP[1,2]  6.5152519893899211e-02
    x[1,8]    findWorstP[1,3]  6.5152519893899211e-02
    x[1,8]    findWorstP[2,1]  -4.7212334499692442e-02
    x[1,8]    findWorstP[3,1]  -7.2552584369770162e-02
    x[1,9]    allocateEach[9]  1
    x[1,9]    findWorstP[1,2]  4.3589743589743588e-02
    x[1,9]    findWorstP[1,3]  4.3589743589743588e-02
    x[1,9]    findWorstP[2,1]  -8.4713973116598937e-02
    x[1,9]    findWorstP[3,1]  -1.0260423564540014e-01
    x[1,10]   allocateEach[10]  1
    x[1,10]   findWorstP[1,2]  0.0868368700265252
    x[1,10]   findWorstP[1,3]  0.0868368700265252
    x[1,10]   findWorstP[2,1]  -3.2822757111597378e-02
    x[1,10]   findWorstP[3,1]  -1.0441022430379136e-01
    x[1,11]   allocateEach[11]  1
    x[1,11]   findWorstP[1,2]  1.0266357206012378e-01
    x[1,11]   findWorstP[1,3]  1.0266357206012378e-01
    x[1,11]   findWorstP[2,1]  -0.0436830057780153
    x[1,11]   findWorstP[3,1]  -1.5086025259761368e-02
    x[1,12]   allocateEach[12]  1
    x[1,12]   findWorstP[1,2]  2.2203801945181255e-02
    x[1,12]   findWorstP[1,3]  2.2203801945181255e-02
    x[1,12]   findWorstP[2,1]  -6.2338029021165885e-02
    x[1,12]   findWorstP[3,1]  -7.1782029208856554e-02
    x[1,13]   allocateEach[13]  1
    x[1,13]   findWorstP[1,2]  7.5740495137046865e-02
    x[1,13]   findWorstP[1,3]  7.5740495137046865e-02
    x[1,13]   findWorstP[2,1]  -3.3972309895229355e-02
    x[1,13]   findWorstP[3,1]  -2.6560073202740286e-02
    x[1,14]   allocateEach[14]  1
    x[1,14]   findWorstP[1,2]  3.8306808134394341e-02
    x[1,14]   findWorstP[1,3]  3.8306808134394341e-02
    x[1,14]   findWorstP[2,1]  -6.6240458207706035e-02
    x[1,14]   findWorstP[3,1]  -6.5027631626473389e-02
    x[1,15]   allocateEach[15]  1
    x[1,15]   findWorstP[1,2]  6.2378426171529625e-02
    x[1,15]   findWorstP[1,3]  6.2378426171529625e-02
    x[1,15]   findWorstP[2,1]  -0.0948381046496385
    x[1,15]   findWorstP[3,1]  -1.0690248865237126e-01
    x[1,16]   allocateEach[16]  1
    x[1,16]   findWorstP[1,2]  1.0568081343943414e-01
    x[1,16]   findWorstP[1,3]  1.0568081343943414e-01
    x[1,16]   findWorstP[2,1]  -3.6392421018665105e-02
    x[1,16]   findWorstP[3,1]  -3.8913035626136266e-02
    x[2,1]    allocateEach[1]  1
    x[2,1]    findWorstP[1,2]  -7.9354553492484520e-02
    x[2,1]    findWorstP[2,1]  6.6694229043350234e-02
    x[2,1]    findWorstP[2,3]  6.6694229043350234e-02
    x[2,1]    findWorstP[3,2]  -7.2986021647784047e-02
    x[2,2]    allocateEach[2]  1
    x[2,2]    findWorstP[1,2]  -1.0838859416445623e-01
    x[2,2]    findWorstP[2,1]  6.9053837388700093e-02
    x[2,2]    findWorstP[2,3]  6.9053837388700093e-02
    x[2,2]    findWorstP[3,2]  -3.9864189652888980e-02
    x[2,3]    allocateEach[3]  1
    x[2,3]    findWorstP[1,2]  -2.4745800176834660e-02
    x[2,3]    findWorstP[2,1]  7.5144450382680070e-02
    x[2,3]    findWorstP[2,3]  7.5144450382680070e-02
    x[2,3]    findWorstP[3,2]  -2.9798812863455218e-02
    x[2,4]    allocateEach[4]  1
    x[2,4]    findWorstP[1,2]  -6.7838196286472155e-02
    x[2,4]    findWorstP[2,1]  8.2525789309159117e-02
    x[2,4]    findWorstP[2,3]  8.2525789309159117e-02
    x[2,4]    findWorstP[3,2]  -9.1804423468220611e-02
    x[2,5]    allocateEach[5]  1
    x[2,5]    findWorstP[1,2]  -1.4843059239610963e-02
    x[2,5]    findWorstP[2,1]  2.2920469098206091e-02
    x[2,5]    findWorstP[2,3]  2.2920469098206091e-02
    x[2,5]    findWorstP[3,2]  -9.4308727741189785e-02
    x[2,6]    allocateEach[6]  1
    x[2,6]    findWorstP[1,2]  -3.1686560565870915e-02
    x[2,6]    findWorstP[2,1]  7.9077130958263173e-02
    x[2,6]    findWorstP[2,3]  7.9077130958263173e-02
    x[2,6]    findWorstP[3,2]  -1.2051964313664109e-02
    x[2,7]    allocateEach[7]  1
    x[2,7]    findWorstP[1,2]  -5.4011936339522552e-02
    x[2,7]    findWorstP[2,1]  8.7245005999858821e-02
    x[2,7]    findWorstP[2,3]  8.7245005999858821e-02
    x[2,7]    findWorstP[3,2]  -3.7287645833584161e-02
    x[2,8]    allocateEach[8]  1
    x[2,8]    findWorstP[1,2]  -6.5152519893899211e-02
    x[2,8]    findWorstP[2,1]  4.7212334499692442e-02
    x[2,8]    findWorstP[2,3]  4.7212334499692442e-02
    x[2,8]    findWorstP[3,2]  -7.2552584369770162e-02
    x[2,9]    allocateEach[9]  1
    x[2,9]    findWorstP[1,2]  -4.3589743589743588e-02
    x[2,9]    findWorstP[2,1]  8.4713973116598937e-02
    x[2,9]    findWorstP[2,3]  8.4713973116598937e-02
    x[2,9]    findWorstP[3,2]  -1.0260423564540014e-01
    x[2,10]   allocateEach[10]  1
    x[2,10]   findWorstP[1,2]  -0.0868368700265252
    x[2,10]   findWorstP[2,1]  3.2822757111597378e-02
    x[2,10]   findWorstP[2,3]  3.2822757111597378e-02
    x[2,10]   findWorstP[3,2]  -1.0441022430379136e-01
    x[2,11]   allocateEach[11]  1
    x[2,11]   findWorstP[1,2]  -1.0266357206012378e-01
    x[2,11]   findWorstP[2,1]  0.0436830057780153
    x[2,11]   findWorstP[2,3]  0.0436830057780153
    x[2,11]   findWorstP[3,2]  -1.5086025259761368e-02
    x[2,12]   allocateEach[12]  1
    x[2,12]   findWorstP[1,2]  -2.2203801945181255e-02
    x[2,12]   findWorstP[2,1]  6.2338029021165885e-02
    x[2,12]   findWorstP[2,3]  6.2338029021165885e-02
    x[2,12]   findWorstP[3,2]  -7.1782029208856554e-02
    x[2,13]   allocateEach[13]  1
    x[2,13]   findWorstP[1,2]  -7.5740495137046865e-02
    x[2,13]   findWorstP[2,1]  3.3972309895229355e-02
    x[2,13]   findWorstP[2,3]  3.3972309895229355e-02
    x[2,13]   findWorstP[3,2]  -2.6560073202740286e-02
    x[2,14]   allocateEach[14]  1
    x[2,14]   findWorstP[1,2]  -3.8306808134394341e-02
    x[2,14]   findWorstP[2,1]  6.6240458207706035e-02
    x[2,14]   findWorstP[2,3]  6.6240458207706035e-02
    x[2,14]   findWorstP[3,2]  -6.5027631626473389e-02
    x[2,15]   allocateEach[15]  1
    x[2,15]   findWorstP[1,2]  -6.2378426171529625e-02
    x[2,15]   findWorstP[2,1]  0.0948381046496385
    x[2,15]   findWorstP[2,3]  0.0948381046496385
    x[2,15]   findWorstP[3,2]  -1.0690248865237126e-01
    x[2,16]   allocateEach[16]  1
    x[2,16]   findWorstP[1,2]  -1.0568081343943414e-01
    x[2,16]   findWorstP[2,1]  3.6392421018665105e-02
    x[2,16]   findWorstP[2,3]  3.6392421018665105e-02
    x[2,16]   findWorstP[3,2]  -3.8913035626136266e-02
    x[3,1]    allocateEach[1]  1
    x[3,1]    findWorstP[1,3]  -7.9354553492484520e-02
    x[3,1]    findWorstP[2,3]  -6.6694229043350234e-02
    x[3,1]    findWorstP[3,1]  7.2986021647784047e-02
    x[3,1]    findWorstP[3,2]  7.2986021647784047e-02
    x[3,2]    allocateEach[2]  1
    x[3,2]    findWorstP[1,3]  -1.0838859416445623e-01
    x[3,2]    findWorstP[2,3]  -6.9053837388700093e-02
    x[3,2]    findWorstP[3,1]  3.9864189652888980e-02
    x[3,2]    findWorstP[3,2]  3.9864189652888980e-02
    x[3,3]    allocateEach[3]  1
    x[3,3]    findWorstP[1,3]  -2.4745800176834660e-02
    x[3,3]    findWorstP[2,3]  -7.5144450382680070e-02
    x[3,3]    findWorstP[3,1]  2.9798812863455218e-02
    x[3,3]    findWorstP[3,2]  2.9798812863455218e-02
    x[3,4]    allocateEach[4]  1
    x[3,4]    findWorstP[1,3]  -6.7838196286472155e-02
    x[3,4]    findWorstP[2,3]  -8.2525789309159117e-02
    x[3,4]    findWorstP[3,1]  9.1804423468220611e-02
    x[3,4]    findWorstP[3,2]  9.1804423468220611e-02
    x[3,5]    allocateEach[5]  1
    x[3,5]    findWorstP[1,3]  -1.4843059239610963e-02
    x[3,5]    findWorstP[2,3]  -2.2920469098206091e-02
    x[3,5]    findWorstP[3,1]  9.4308727741189785e-02
    x[3,5]    findWorstP[3,2]  9.4308727741189785e-02
    x[3,6]    allocateEach[6]  1
    x[3,6]    findWorstP[1,3]  -3.1686560565870915e-02
    x[3,6]    findWorstP[2,3]  -7.9077130958263173e-02
    x[3,6]    findWorstP[3,1]  1.2051964313664109e-02
    x[3,6]    findWorstP[3,2]  1.2051964313664109e-02
    x[3,7]    allocateEach[7]  1
    x[3,7]    findWorstP[1,3]  -5.4011936339522552e-02
    x[3,7]    findWorstP[2,3]  -8.7245005999858821e-02
    x[3,7]    findWorstP[3,1]  3.7287645833584161e-02
    x[3,7]    findWorstP[3,2]  3.7287645833584161e-02
    x[3,8]    allocateEach[8]  1
    x[3,8]    findWorstP[1,3]  -6.5152519893899211e-02
    x[3,8]    findWorstP[2,3]  -4.7212334499692442e-02
    x[3,8]    findWorstP[3,1]  7.2552584369770162e-02
    x[3,8]    findWorstP[3,2]  7.2552584369770162e-02
    x[3,9]    allocateEach[9]  1
    x[3,9]    findWorstP[1,3]  -4.3589743589743588e-02
    x[3,9]    findWorstP[2,3]  -8.4713973116598937e-02
    x[3,9]    findWorstP[3,1]  1.0260423564540014e-01
    x[3,9]    findWorstP[3,2]  1.0260423564540014e-01
    x[3,10]   allocateEach[10]  1
    x[3,10]   findWorstP[1,3]  -0.0868368700265252
    x[3,10]   findWorstP[2,3]  -3.2822757111597378e-02
    x[3,10]   findWorstP[3,1]  1.0441022430379136e-01
    x[3,10]   findWorstP[3,2]  1.0441022430379136e-01
    x[3,11]   allocateEach[11]  1
    x[3,11]   findWorstP[1,3]  -1.0266357206012378e-01
    x[3,11]   findWorstP[2,3]  -0.0436830057780153
    x[3,11]   findWorstP[3,1]  1.5086025259761368e-02
    x[3,11]   findWorstP[3,2]  1.5086025259761368e-02
    x[3,12]   allocateEach[12]  1
    x[3,12]   findWorstP[1,3]  -2.2203801945181255e-02
    x[3,12]   findWorstP[2,3]  -6.2338029021165885e-02
    x[3,12]   findWorstP[3,1]  7.1782029208856554e-02
    x[3,12]   findWorstP[3,2]  7.1782029208856554e-02
    x[3,13]   allocateEach[13]  1
    x[3,13]   findWorstP[1,3]  -7.5740495137046865e-02
    x[3,13]   findWorstP[2,3]  -3.3972309895229355e-02
    x[3,13]   findWorstP[3,1]  2.6560073202740286e-02
    x[3,13]   findWorstP[3,2]  2.6560073202740286e-02
    x[3,14]   allocateEach[14]  1
    x[3,14]   findWorstP[1,3]  -3.8306808134394341e-02
    x[3,14]   findWorstP[2,3]  -6.6240458207706035e-02
    x[3,14]   findWorstP[3,1]  6.5027631626473389e-02
    x[3,14]   findWorstP[3,2]  6.5027631626473389e-02
    x[3,15]   allocateEach[15]  1
    x[3,15]   findWorstP[1,3]  -6.2378426171529625e-02
    x[3,15]   findWorstP[2,3]  -0.0948381046496385
    x[3,15]   findWorstP[3,1]  1.0690248865237126e-01
    x[3,15]   findWorstP[3,2]  1.0690248865237126e-01
    x[3,16]   allocateEach[16]  1
    x[3,16]   findWorstP[1,3]  -1.0568081343943414e-01
    x[3,16]   findWorstP[2,3]  -3.6392421018665105e-02
    x[3,16]   findWorstP[3,1]  3.8913035626136266e-02
    x[3,16]   findWorstP[3,2]  3.8913035626136266e-02
    MARKER    'MARKER'                 'INTEND'
RHS
    RHS1      allocateEach[1]  1
    RHS1      allocateEach[2]  1
    RHS1      allocateEach[3]  1
    RHS1      allocateEach[4]  1
    RHS1      allocateEach[5]  1
    RHS1      allocateEach[6]  1
    RHS1      allocateEach[7]  1
    RHS1      allocateEach[8]  1
    RHS1      allocateEach[9]  1
    RHS1      allocateEach[10]  1
    RHS1      allocateEach[11]  1
    RHS1      allocateEach[12]  1
    RHS1      allocateEach[13]  1
    RHS1      allocateEach[14]  1
    RHS1      allocateEach[15]  1
    RHS1      allocateEach[16]  1
    RHS1      allocateAllCash  1
BOUNDS
 UP BND1      z         1
 MI BND1      cashProportion[1]
 UP BND1      cashProportion[1]  1
 MI BND1      cashProportion[2]
 UP BND1      cashProportion[2]  1
 MI BND1      cashProportion[3]
 UP BND1      cashProportion[3]  1
 BV BND1      x[1,1]  
 BV BND1      x[1,2]  
 BV BND1      x[1,3]  
 BV BND1      x[1,4]  
 BV BND1      x[1,5]  
 BV BND1      x[1,6]  
 BV BND1      x[1,7]  
 BV BND1      x[1,8]  
 BV BND1      x[1,9]  
 BV BND1      x[1,10] 
 BV BND1      x[1,11] 
 BV BND1      x[1,12] 
 BV BND1      x[1,13] 
 BV BND1      x[1,14] 
 BV BND1      x[1,15] 
 BV BND1      x[1,16] 
 BV BND1      x[2,1]  
 BV BND1      x[2,2]  
 BV BND1      x[2,3]  
 BV BND1      x[2,4]  
 BV BND1      x[2,5]  
 BV BND1      x[2,6]  
 BV BND1      x[2,7]  
 BV BND1      x[2,8]  
 BV BND1      x[2,9]  
 BV BND1      x[2,10] 
 BV BND1      x[2,11] 
 BV BND1      x[2,12] 
 BV BND1      x[2,13] 
 BV BND1      x[2,14] 
 BV BND1      x[2,15] 
 BV BND1      x[2,16] 
 BV BND1      x[3,1]  
 BV BND1      x[3,2]  
 BV BND1      x[3,3]  
 BV BND1      x[3,4]  
 BV BND1      x[3,5]  
 BV BND1      x[3,6]  
 BV BND1      x[3,7]  
 BV BND1      x[3,8]  
 BV BND1      x[3,9]  
 BV BND1      x[3,10] 
 BV BND1      x[3,11] 
 BV BND1      x[3,12] 
 BV BND1      x[3,13] 
 BV BND1      x[3,14] 
 BV BND1      x[3,15] 
 BV BND1      x[3,16] 
ENDATA
